Cost: 397
0-34-46-8-35-0
0-26-12-17-0
0-52-27-45-4-0
0-33-16-51-0
0-7-53-14-19-0
0-15-57-13-0
0-40-9-39-58-0
0-29-48-21-30-0
Cost: 397
0-34-46-8-35-0
0-52-27-45-4-0
0-29-48-21-30-0
0-7-53-14-19-0
0-51-16-33-0
0-15-57-13-0
0-17-12-26-0
0-40-9-39-58-0
Cost: 397
0-34-46-8-35-0
0-26-12-17-0
0-52-27-45-4-0
0-33-16-51-0
0-7-53-14-19-0
0-15-57-13-0
0-40-9-39-58-0
0-29-48-21-30-0
Cost: 397
0-17-12-26-0
0-13-57-15-0
0-19-14-53-7-0
0-52-27-45-4-0
0-34-46-8-35-0
0-29-48-21-30-0
0-58-39-9-40-0
0-51-16-33-0
Cost: 397
0-17-12-26-0
0-51-16-33-0
0-52-27-45-4-0
0-40-9-39-58-0
0-13-57-15-0
0-35-8-46-34-0
0-30-21-48-29-0
0-7-53-14-19-0
Cost: 397
0-17-12-26-0
0-35-8-46-34-0
0-52-27-45-4-0
0-19-14-53-7-0
0-58-39-9-40-0
0-30-21-48-29-0
0-51-16-33-0
0-15-57-13-0
Cost: 397
0-17-12-26-0
0-35-8-46-34-0
0-52-27-45-4-0
0-19-14-53-7-0
0-58-39-9-40-0
0-30-21-48-29-0
0-51-16-33-0
0-15-57-13-0
Cost: 397
0-17-12-26-0
0-35-8-46-34-0
0-52-27-45-4-0
0-19-14-53-7-0
0-58-39-9-40-0
0-30-21-48-29-0
0-51-16-33-0
0-15-57-13-0
Cost: 397
0-17-12-26-0
0-35-8-46-34-0
0-52-27-45-4-0
0-19-14-53-7-0
0-58-39-9-40-0
0-30-21-48-29-0
0-51-16-33-0
0-15-57-13-0
Cost: 397
0-17-12-26-0
0-35-8-46-34-0
0-52-27-45-4-0
0-19-14-53-7-0
0-58-39-9-40-0
0-30-21-48-29-0
0-51-16-33-0
0-15-57-13-0
Cost: 397
0-15-57-13-0
0-40-9-39-58-0
0-4-45-27-52-0
0-17-12-26-0
0-7-53-14-19-0
0-35-8-46-34-0
0-30-21-48-29-0
0-33-16-51-0
Cost: 397
0-17-12-26-0
0-35-8-46-34-0
0-52-27-45-4-0
0-19-14-53-7-0
0-58-39-9-40-0
0-30-21-48-29-0
0-51-16-33-0
0-15-57-13-0
Cost: 397
0-4-45-27-52-0
0-33-16-51-0
0-7-53-14-19-0
0-15-57-13-0
0-35-8-46-34-0
0-30-21-48-29-0
0-40-9-39-58-0
0-17-12-26-0
Cost: 397
0-17-12-26-0
0-35-8-46-34-0
0-52-27-45-4-0
0-19-14-53-7-0
0-58-39-9-40-0
0-30-21-48-29-0
0-51-16-33-0
0-15-57-13-0
Cost: 397
0-17-12-26-0
0-35-8-46-34-0
0-52-27-45-4-0
0-19-14-53-7-0
0-58-39-9-40-0
0-30-21-48-29-0
0-51-16-33-0
0-15-57-13-0
Cost: 397
0-17-12-26-0
0-35-8-46-34-0
0-52-27-45-4-0
0-19-14-53-7-0
0-58-39-9-40-0
0-30-21-48-29-0
0-51-16-33-0
0-15-57-13-0
Cost: 397
0-4-45-27-52-0
0-33-16-51-0
0-29-48-21-30-0
0-40-9-39-58-0
0-13-57-15-0
0-19-14-53-7-0
0-17-12-26-0
0-34-46-8-35-0
Cost: 397
0-30-21-48-29-0
0-51-16-33-0
0-4-45-27-52-0
0-13-57-15-0
0-7-53-14-19-0
0-35-8-46-34-0
0-58-39-9-40-0
0-17-12-26-0
Cost: 397
0-7-53-14-19-0
0-29-48-21-30-0
0-40-9-39-58-0
0-35-8-46-34-0
0-13-57-15-0
0-51-16-33-0
0-26-12-17-0
0-52-27-45-4-0
Cost: 397
0-4-45-27-52-0
0-30-21-48-29-0
0-7-53-14-19-0
0-13-57-15-0
0-35-8-46-34-0
0-17-12-26-0
0-40-9-39-58-0
0-33-16-51-0
Cost: 397
0-4-45-27-52-0
0-30-21-48-29-0
0-7-53-14-19-0
0-13-57-15-0
0-35-8-46-34-0
0-17-12-26-0
0-40-9-39-58-0
0-33-16-51-0
Cost: 397
0-52-27-45-4-0
0-29-48-21-30-0
0-17-12-26-0
0-35-8-46-34-0
0-58-39-9-40-0
0-15-57-13-0
0-33-16-51-0
0-7-53-14-19-0
Cost: 397
0-4-45-27-52-0
0-30-21-48-29-0
0-7-53-14-19-0
0-13-57-15-0
0-35-8-46-34-0
0-17-12-26-0
0-40-9-39-58-0
0-33-16-51-0
Cost: 397
0-4-45-27-52-0
0-33-16-51-0
0-29-48-21-30-0
0-40-9-39-58-0
0-13-57-15-0
0-19-14-53-7-0
0-17-12-26-0
0-34-46-8-35-0
Cost: 397
0-4-45-27-52-0
0-30-21-48-29-0
0-17-12-26-0
0-40-9-39-58-0
0-35-8-46-34-0
0-33-16-51-0
0-13-57-15-0
0-19-14-53-7-0
Cost: 397
0-35-8-46-34-0
0-4-45-27-52-0
0-13-57-15-0
0-17-12-26-0
0-58-39-9-40-0
0-7-53-14-19-0
0-29-48-21-30-0
0-51-16-33-0
Cost: 0
Cost: 401
0-34-46-8-35-0
0-29-48-21-30-0
0-58-39-9-40-0
0-57-15-45-4-0
0-26-12-17-0
0-19-14-53-7-0
0-27-13-52-0
0-51-16-33-0
Cost: 397
0-40-9-39-58-0
0-34-46-8-35-0
0-30-21-48-29-0
0-33-16-51-0
0-26-12-17-0
0-52-27-45-4-0
0-15-57-13-0
0-7-53-14-19-0
Cost: 397
0-15-57-13-0
0-33-16-51-0
0-17-12-26-0
0-58-39-9-40-0
0-30-21-48-29-0
0-19-14-53-7-0
0-4-45-27-52-0
0-34-46-8-35-0
